40834 38493 
40678 38886 
40855 38168 
40603 38892 
40968 38067 
40829 38612 
40973 37948 
40452 39166 
40173 39222 
40975 37013 
39688 39717 
40050 39420 
40121 39411 
40023 39436 
39625 39818 
39900 39631 
40171 39261 
40135 39395 
39955 39588 
40142 39311 
39691 39716 
39584 39958 
39557 39974 
38745 40541 
39735 39684 
39195 40103 
39708 39700 
38546 40589 
38718 40557 
39422 40100 
39147 40287 
37851 41035 
38428 40770 
38248 40963 
38946 40344 
37560 41128 
37824 41051 
38401 40786 
38221 40979 
39105 40329 
38925 40522 
38316 40808 
37757 41063 
37283 41295 
37860 41030 
37906 40992 
37477 41262 
36789 41427 
37364 41280 
37533 41144 
37256 41311 
37833 41046 
37879 41008 
37730 41079 
37043 41364 
37505 41183 
38465 40680 
37926 40988 
37748 41068 
38517 40611 
36792 41395 
37089 41329 
37616 41092 
36977 41367 
36475 41624 
36635 41514 
